c nIsolatedPIs 2
c maxPI 18
p cnf 244 679
c gate 19 4 12 0
4 -19 0
12 -19 0
-4 -12 19 0
c gate 20 5 11 0
5 -20 0
11 -20 0
-5 -11 20 0
c gate 21 6 10 0
6 -21 0
10 -21 0
-6 -10 21 0
c gate 22 -20 -21 0
-20 -22 0
-21 -22 0
20 21 22 0
c gate 23 20 21 0
20 -23 0
21 -23 0
-20 -21 23 0
c gate 24 -22 -23 0
-22 -24 0
-23 -24 0
22 23 24 0
c gate 25 -19 -24 0
-19 -25 0
-24 -25 0
19 24 25 0
c gate 26 19 24 0
19 -26 0
24 -26 0
-19 -24 26 0
c gate 27 -25 -26 0
-25 -27 0
-26 -27 0
25 26 27 0
c gate 28 4 11 0
4 -28 0
11 -28 0
-4 -11 28 0
c gate 29 5 10 0
5 -29 0
10 -29 0
-5 -10 29 0
c gate 30 -28 -29 0
-28 -30 0
-29 -30 0
28 29 30 0
c gate 31 28 29 0
28 -31 0
29 -31 0
-28 -29 31 0
c gate 32 -30 -31 0
-30 -32 0
-31 -32 0
30 31 32 0
c gate 33 3 12 0
3 -33 0
12 -33 0
-3 -12 33 0
c gate 34 32 -33 0
32 -34 0
-33 -34 0
-32 33 34 0
c gate 35 -30 -34 0
-30 -35 0
-34 -35 0
30 34 35 0
c gate 36 27 35 0
27 -36 0
35 -36 0
-27 -35 36 0
c gate 37 1 15 0
1 -37 0
15 -37 0
-1 -15 37 0
c gate 38 2 14 0
2 -38 0
14 -38 0
-2 -14 38 0
c gate 39 3 13 0
3 -39 0
13 -39 0
-3 -13 39 0
c gate 40 -38 -39 0
-38 -40 0
-39 -40 0
38 39 40 0
c gate 41 38 39 0
38 -41 0
39 -41 0
-38 -39 41 0
c gate 42 -40 -41 0
-40 -42 0
-41 -42 0
40 41 42 0
c gate 43 37 42 0
37 -43 0
42 -43 0
-37 -42 43 0
c gate 44 -37 -42 0
-37 -44 0
-42 -44 0
37 42 44 0
c gate 45 -43 -44 0
-43 -45 0
-44 -45 0
43 44 45 0
c gate 46 -27 -35 0
-27 -46 0
-35 -46 0
27 35 46 0
c gate 47 -36 -46 0
-36 -47 0
-46 -47 0
36 46 47 0
c gate 48 45 47 0
45 -48 0
47 -48 0
-45 -47 48 0
c gate 49 -36 -48 0
-36 -49 0
-48 -49 0
36 48 49 0
c gate 50 -23 -26 0
-23 -50 0
-26 -50 0
23 26 50 0
c gate 51 6 11 0
6 -51 0
11 -51 0
-6 -11 51 0
c gate 52 7 10 0
7 -52 0
10 -52 0
-7 -10 52 0
c gate 53 -51 -52 0
-51 -53 0
-52 -53 0
51 52 53 0
c gate 54 51 52 0
51 -54 0
52 -54 0
-51 -52 54 0
c gate 55 -53 -54 0
-53 -55 0
-54 -55 0
53 54 55 0
c gate 56 5 12 0
5 -56 0
12 -56 0
-5 -12 56 0
c gate 57 -55 56 0
-55 -57 0
56 -57 0
55 -56 57 0
c gate 58 55 -56 0
55 -58 0
-56 -58 0
-55 56 58 0
c gate 59 -57 -58 0
-57 -59 0
-58 -59 0
57 58 59 0
c gate 60 50 59 0
50 -60 0
59 -60 0
-50 -59 60 0
c gate 61 -50 -59 0
-50 -61 0
-59 -61 0
50 59 61 0
c gate 62 -60 -61 0
-60 -62 0
-61 -62 0
60 61 62 0
c gate 63 2 15 0
2 -63 0
15 -63 0
-2 -15 63 0
c gate 64 3 14 0
3 -64 0
14 -64 0
-3 -14 64 0
c gate 65 4 13 0
4 -65 0
13 -65 0
-4 -13 65 0
c gate 66 -64 -65 0
-64 -66 0
-65 -66 0
64 65 66 0
c gate 67 64 65 0
64 -67 0
65 -67 0
-64 -65 67 0
c gate 68 -66 -67 0
-66 -68 0
-67 -68 0
66 67 68 0
c gate 69 63 68 0
63 -69 0
68 -69 0
-63 -68 69 0
c gate 70 -63 -68 0
-63 -70 0
-68 -70 0
63 68 70 0
c gate 71 -69 -70 0
-69 -71 0
-70 -71 0
69 70 71 0
c gate 72 -62 71 0
-62 -72 0
71 -72 0
62 -71 72 0
c gate 73 62 -71 0
62 -73 0
-71 -73 0
-62 71 73 0
c gate 74 -72 -73 0
-72 -74 0
-73 -74 0
72 73 74 0
c gate 75 -49 -74 0
-49 -75 0
-74 -75 0
49 74 75 0
c gate 76 49 74 0
49 -76 0
74 -76 0
-49 -74 76 0
c gate 77 -75 -76 0
-75 -77 0
-76 -77 0
75 76 77 0
c gate 78 1 16 0
1 -78 0
16 -78 0
-1 -16 78 0
c gate 79 -41 -43 0
-41 -79 0
-43 -79 0
41 43 79 0
c gate 80 78 -79 0
78 -80 0
-79 -80 0
-78 79 80 0
c gate 81 -78 79 0
-78 -81 0
79 -81 0
78 -79 81 0
c gate 82 -80 -81 0
-80 -82 0
-81 -82 0
80 81 82 0
c gate 83 77 82 0
77 -83 0
82 -83 0
-77 -82 83 0
c gate 84 -75 -83 0
-75 -84 0
-83 -84 0
75 83 84 0
c gate 85 -67 -69 0
-67 -85 0
-69 -85 0
67 69 85 0
c gate 86 1 17 0
1 -86 0
17 -86 0
-1 -17 86 0
c gate 87 2 16 0
2 -87 0
16 -87 0
-2 -16 87 0
c gate 88 -86 87 0
-86 -88 0
87 -88 0
86 -87 88 0
c gate 89 86 -87 0
86 -89 0
-87 -89 0
-86 87 89 0
c gate 90 -88 -89 0
-88 -90 0
-89 -90 0
88 89 90 0
c gate 91 -85 -90 0
-85 -91 0
-90 -91 0
85 90 91 0
c gate 92 85 90 0
85 -92 0
90 -92 0
-85 -90 92 0
c gate 93 -91 -92 0
-91 -93 0
-92 -93 0
91 92 93 0
c gate 94 3 15 0
3 -94 0
15 -94 0
-3 -15 94 0
c gate 95 4 14 0
4 -95 0
14 -95 0
-4 -14 95 0
c gate 96 5 13 0
5 -96 0
13 -96 0
-5 -13 96 0
c gate 97 -95 -96 0
-95 -97 0
-96 -97 0
95 96 97 0
c gate 98 95 96 0
95 -98 0
96 -98 0
-95 -96 98 0
c gate 99 -97 -98 0
-97 -99 0
-98 -99 0
97 98 99 0
c gate 100 94 99 0
94 -100 0
99 -100 0
-94 -99 100 0
c gate 101 -94 -99 0
-94 -101 0
-99 -101 0
94 99 101 0
c gate 102 -100 -101 0
-100 -102 0
-101 -102 0
100 101 102 0
c gate 103 6 12 0
6 -103 0
12 -103 0
-6 -12 103 0
c gate 104 7 11 0
7 -104 0
11 -104 0
-7 -11 104 0
c gate 105 8 10 0
8 -105 0
10 -105 0
-8 -10 105 0
c gate 106 -104 -105 0
-104 -106 0
-105 -106 0
104 105 106 0
c gate 107 104 105 0
104 -107 0
105 -107 0
-104 -105 107 0
c gate 108 -106 -107 0
-106 -108 0
-107 -108 0
106 107 108 0
c gate 109 103 108 0
103 -109 0
108 -109 0
-103 -108 109 0
c gate 110 -103 -108 0
-103 -110 0
-108 -110 0
103 108 110 0
c gate 111 -109 -110 0
-109 -111 0
-110 -111 0
109 110 111 0
c gate 112 -53 -58 0
-53 -112 0
-58 -112 0
53 58 112 0
c gate 113 111 112 0
111 -113 0
112 -113 0
-111 -112 113 0
c gate 114 -111 -112 0
-111 -114 0
-112 -114 0
111 112 114 0
c gate 115 -113 -114 0
-113 -115 0
-114 -115 0
113 114 115 0
c gate 116 -102 -115 0
-102 -116 0
-115 -116 0
102 115 116 0
c gate 117 102 115 0
102 -117 0
115 -117 0
-102 -115 117 0
c gate 118 -116 -117 0
-116 -118 0
-117 -118 0
116 117 118 0
c gate 119 -60 -73 0
-60 -119 0
-73 -119 0
60 73 119 0
c gate 120 118 119 0
118 -120 0
119 -120 0
-118 -119 120 0
c gate 121 -118 -119 0
-118 -121 0
-119 -121 0
118 119 121 0
c gate 122 -120 -121 0
-120 -122 0
-121 -122 0
120 121 122 0
c gate 123 -93 -122 0
-93 -123 0
-122 -123 0
93 122 123 0
c gate 124 93 122 0
93 -124 0
122 -124 0
-93 -122 124 0
c gate 125 -123 -124 0
-123 -125 0
-124 -125 0
123 124 125 0
c gate 126 -84 125 0
-84 -126 0
125 -126 0
84 -125 126 0
c gate 127 84 -125 0
84 -127 0
-125 -127 0
-84 125 127 0
c gate 128 -126 -127 0
-126 -128 0
-127 -128 0
126 127 128 0
c gate 129 80 128 0
80 -129 0
128 -129 0
-80 -128 129 0
c gate 130 -126 -129 0
-126 -130 0
-129 -130 0
126 129 130 0
c gate 131 -113 -117 0
-113 -131 0
-117 -131 0
113 117 131 0
c gate 132 -107 -109 0
-107 -132 0
-109 -132 0
107 109 132 0
c gate 133 131 -132 0
131 -133 0
-132 -133 0
-131 132 133 0
c gate 134 -131 132 0
-131 -134 0
132 -134 0
131 -132 134 0
c gate 135 -133 -134 0
-133 -135 0
-134 -135 0
133 134 135 0
c gate 136 130 -135 0
130 -136 0
-135 -136 0
-130 135 136 0
c gate 137 -130 135 0
-130 -137 0
135 -137 0
130 -135 137 0
c gate 138 -136 -137 0
-136 -138 0
-137 -138 0
136 137 138 0
c gate 139 2 17 0
2 -139 0
17 -139 0
-2 -17 139 0
c gate 140 -78 139 0
-78 -140 0
139 -140 0
78 -139 140 0
c gate 141 -98 -100 0
-98 -141 0
-100 -141 0
98 100 141 0
c gate 142 1 18 0
1 -142 0
18 -142 0
-1 -18 142 0
c gate 143 3 16 0
3 -143 0
16 -143 0
-3 -16 143 0
c gate 144 142 -143 0
142 -144 0
-143 -144 0
-142 143 144 0
c gate 145 -142 143 0
-142 -145 0
143 -145 0
142 -143 145 0
c gate 146 -144 -145 0
-144 -146 0
-145 -146 0
144 145 146 0
c gate 147 141 -146 0
141 -147 0
-146 -147 0
-141 146 147 0
c gate 148 -141 146 0
-141 -148 0
146 -148 0
141 -146 148 0
c gate 149 -147 -148 0
-147 -149 0
-148 -149 0
147 148 149 0
c gate 150 140 149 0
140 -150 0
149 -150 0
-140 -149 150 0
c gate 151 -140 -149 0
-140 -151 0
-149 -151 0
140 149 151 0
c gate 152 -150 -151 0
-150 -152 0
-151 -152 0
150 151 152 0
c gate 153 5 14 0
5 -153 0
14 -153 0
-5 -14 153 0
c gate 154 6 13 0
6 -154 0
13 -154 0
-6 -13 154 0
c gate 155 153 -154 0
153 -155 0
-154 -155 0
-153 154 155 0
c gate 156 -153 154 0
-153 -156 0
154 -156 0
153 -154 156 0
c gate 157 -155 -156 0
-155 -157 0
-156 -157 0
155 156 157 0
c gate 158 152 -157 0
152 -158 0
-157 -158 0
-152 157 158 0
c gate 159 -152 157 0
-152 -159 0
157 -159 0
152 -157 159 0
c gate 160 -158 -159 0
-158 -160 0
-159 -160 0
158 159 160 0
c gate 161 4 15 0
4 -161 0
15 -161 0
-4 -15 161 0
c gate 162 7 12 0
7 -162 0
12 -162 0
-7 -12 162 0
c gate 163 8 11 0
8 -163 0
11 -163 0
-8 -11 163 0
c gate 164 162 -163 0
162 -164 0
-163 -164 0
-162 163 164 0
c gate 165 -162 163 0
-162 -165 0
163 -165 0
162 -163 165 0
c gate 166 -164 -165 0
-164 -166 0
-165 -166 0
164 165 166 0
c gate 167 161 -166 0
161 -167 0
-166 -167 0
-161 166 167 0
c gate 168 -161 166 0
-161 -168 0
166 -168 0
161 -166 168 0
c gate 169 -167 -168 0
-167 -169 0
-168 -169 0
167 168 169 0
c gate 170 91 -169 0
91 -170 0
-169 -170 0
-91 169 170 0
c gate 171 -91 169 0
-91 -171 0
169 -171 0
91 -169 171 0
c gate 172 -170 -171 0
-170 -172 0
-171 -172 0
170 171 172 0
c gate 173 160 172 0
160 -173 0
172 -173 0
-160 -172 173 0
c gate 174 -160 -172 0
-160 -174 0
-172 -174 0
160 172 174 0
c gate 175 -173 -174 0
-173 -175 0
-174 -175 0
173 174 175 0
c gate 176 -120 -124 0
-120 -176 0
-124 -176 0
120 124 176 0
c gate 177 9 10 0
9 -177 0
10 -177 0
-9 -10 177 0
c gate 178 176 -177 0
176 -178 0
-177 -178 0
-176 177 178 0
c gate 179 -176 177 0
-176 -179 0
177 -179 0
176 -177 179 0
c gate 180 -178 -179 0
-178 -180 0
-179 -180 0
178 179 180 0
c gate 181 175 -180 0
175 -181 0
-180 -181 0
-175 180 181 0
c gate 182 -175 180 0
-175 -182 0
180 -182 0
175 -180 182 0
c gate 183 -181 -182 0
-181 -183 0
-182 -183 0
181 182 183 0
c gate 184 138 -183 0
138 -184 0
-183 -184 0
-138 183 184 0
c gate 185 -138 183 0
-138 -185 0
183 -185 0
138 -183 185 0
c gate 186 -184 -185 0
-184 -186 0
-185 -186 0
184 185 186 0
c gate 187 -80 -128 0
-80 -187 0
-128 -187 0
80 128 187 0
c gate 188 3 11 0
3 -188 0
11 -188 0
-3 -11 188 0
c gate 189 4 10 0
4 -189 0
10 -189 0
-4 -10 189 0
c gate 190 188 189 0
188 -190 0
189 -190 0
-188 -189 190 0
c gate 191 -188 -189 0
-188 -191 0
-189 -191 0
188 189 191 0
c gate 192 -190 -191 0
-190 -192 0
-191 -192 0
190 191 192 0
c gate 193 2 12 0
2 -193 0
12 -193 0
-2 -12 193 0
c gate 194 192 193 0
192 -194 0
193 -194 0
-192 -193 194 0
c gate 195 -190 -194 0
-190 -195 0
-194 -195 0
190 194 195 0
c gate 196 -32 33 0
-32 -196 0
33 -196 0
32 -33 196 0
c gate 197 -34 -196 0
-34 -197 0
-196 -197 0
34 196 197 0
c gate 198 -195 -197 0
-195 -198 0
-197 -198 0
195 197 198 0
c gate 199 195 197 0
195 -199 0
197 -199 0
-195 -197 199 0
c gate 200 -198 -199 0
-198 -200 0
-199 -200 0
198 199 200 0
c gate 201 1 14 0
1 -201 0
14 -201 0
-1 -14 201 0
c gate 202 2 13 0
2 -202 0
13 -202 0
-2 -13 202 0
c gate 203 201 202 0
201 -203 0
202 -203 0
-201 -202 203 0
c gate 204 -201 -202 0
-201 -204 0
-202 -204 0
201 202 204 0
c gate 205 -203 -204 0
-203 -205 0
-204 -205 0
203 204 205 0
c gate 206 200 205 0
200 -206 0
205 -206 0
-200 -205 206 0
c gate 207 -198 -206 0
-198 -207 0
-206 -207 0
198 206 207 0
c gate 208 -45 -47 0
-45 -208 0
-47 -208 0
45 47 208 0
c gate 209 -48 -208 0
-48 -209 0
-208 -209 0
48 208 209 0
c gate 210 -207 209 0
-207 -210 0
209 -210 0
207 -209 210 0
c gate 211 207 -209 0
207 -211 0
-209 -211 0
-207 209 211 0
c gate 212 -210 -211 0
-210 -212 0
-211 -212 0
210 211 212 0
c gate 213 203 212 0
203 -213 0
212 -213 0
-203 -212 213 0
c gate 214 -210 -213 0
-210 -214 0
-213 -214 0
210 213 214 0
c gate 215 -77 -82 0
-77 -215 0
-82 -215 0
77 82 215 0
c gate 216 -83 -215 0
-83 -216 0
-215 -216 0
83 215 216 0
c gate 217 214 -216 0
214 -217 0
-216 -217 0
-214 216 217 0
c gate 218 -214 216 0
-214 -218 0
216 -218 0
214 -216 218 0
c gate 219 -203 -212 0
-203 -219 0
-212 -219 0
203 212 219 0
c gate 220 -213 -219 0
-213 -220 0
-219 -220 0
213 219 220 0
c gate 221 -192 -193 0
-192 -221 0
-193 -221 0
192 193 221 0
c gate 222 -194 -221 0
-194 -222 0
-221 -222 0
194 221 222 0
c gate 223 3 10 0
3 -223 0
10 -223 0
-3 -10 223 0
c gate 224 2 11 0
2 -224 0
11 -224 0
-2 -11 224 0
c gate 225 223 224 0
223 -225 0
224 -225 0
-223 -224 225 0
c gate 226 -223 -224 0
-223 -226 0
-224 -226 0
223 224 226 0
c gate 227 1 12 0
1 -227 0
12 -227 0
-1 -12 227 0
c gate 228 -226 227 0
-226 -228 0
227 -228 0
226 -227 228 0
c gate 229 -225 -228 0
-225 -229 0
-228 -229 0
225 228 229 0
c gate 230 222 -229 0
222 -230 0
-229 -230 0
-222 229 230 0
c gate 231 1 13 0
1 -231 0
13 -231 0
-1 -13 231 0
c gate 232 -222 229 0
-222 -232 0
229 -232 0
222 -229 232 0
c gate 233 -230 -232 0
-230 -233 0
-232 -233 0
230 232 233 0
c gate 234 231 233 0
231 -234 0
233 -234 0
-231 -233 234 0
c gate 235 -230 -234 0
-230 -235 0
-234 -235 0
230 234 235 0
c gate 236 -200 -205 0
-200 -236 0
-205 -236 0
200 205 236 0
c gate 237 -206 -236 0
-206 -237 0
-236 -237 0
206 236 237 0
c gate 238 -235 237 0
-235 -238 0
237 -238 0
235 -237 238 0
c gate 239 220 238 0
220 -239 0
238 -239 0
-220 -238 239 0
c gate 240 -218 239 0
-218 -240 0
239 -240 0
218 -239 240 0
c gate 241 -217 240 0
-217 -241 0
240 -241 0
217 -240 241 0
c gate 242 -129 241 0
-129 -242 0
241 -242 0
129 -241 242 0
c gate 243 -187 242 0
-187 -243 0
242 -243 0
187 -242 243 0
c gate 244 -186 243 0
-186 -244 0
243 -244 0
186 -243 244 0
c PO
244 0
